NAME: tsp45_9
COMMENT: 45-tsp problem (Padberg/Rinaldi)
TYPE: TSP
DIMENSION: 45
EDGE_WEIGHT_TYPE : EUC_2D
NODE_COORD_SECTION
1 35 28
2 21 23
3 38 18
4 8 29
5 2 5
6 37 22
7 37 18
8 10 15
9 10 18
10 30 8
11 31 27
12 23 8
13 12 17
14 14 19
15 2 15
16 15 33
17 9 20
18 13 36
19 12 10
20 17 39
21 22 12
22 23 37
23 29 35
24 9 27
25 33 12
26 32 9
27 2 19
28 30 4
29 15 32
30 22 33
31 13 39
32 13 26
33 2 20
34 39 9
35 18 19
36 2 9
37 10 7
38 30 6
39 5 20
40 11 37
41 4 29
42 31 14
43 37 25
44 18 40
45 21 38
